p cnf 47 13
-11 17 2 29 -3 -27 34 0
-3 -21 -22 -6 -1 -16 -15 0
-13 2 -10 -5 22 28 -8 0
-28 -1 40 -2 16 11 -30 0
-23 -1 -47 -10 32 -5 20 0
-25 -15 22 -4 -16 -32 -19 0
-15 -13 20 5 31 12 33 0
-10 -2 1 -31 -8 16 3 0
14 -11 1 -16 -2 20 -6 0
-1 -20 3 40 8 4 -2 0
15 4 2 34 16 45 27 0
18 -6 -2 -24 -1 -8 -15 0
10 28 14 35 3 22 21 0
